p edge 1208 1168
e 1 2
e 1 3
e 1 4
e 1 5
e 1 6
e 1 7
e 1 8
e 1 9
e 1 10
e 1 11
e 1 12
e 1 13
e 1 14
e 1 15
e 1 16
e 1 17
e 1 18
e 1 19
e 1 20
e 1 21
e 1 22
e 1 23
e 1 24
e 1 25
e 1 26
e 1 27
e 28 29
e 28 30
e 28 31
e 28 32
e 28 33
e 28 34
e 28 35
e 28 36
e 28 37
e 28 38
e 28 39
e 28 40
e 28 41
e 28 42
e 28 43
e 28 44
e 28 45
e 28 46
e 28 47
e 28 48
e 28 49
e 28 50
e 28 51
e 28 52
e 28 53
e 28 54
e 28 55
e 28 56
e 28 57
e 28 58
e 28 59
e 28 60
e 28 61
e 28 62
e 28 63
e 28 64
e 28 65
e 28 66
e 28 67
e 68 69
e 68 70
e 68 71
e 68 72
e 68 73
e 68 74
e 68 75
e 68 76
e 68 77
e 68 78
e 68 79
e 80 81
e 80 82
e 80 83
e 80 84
e 80 85
e 80 86
e 80 87
e 80 88
e 80 89
e 80 90
e 80 91
e 80 92
e 80 93
e 80 94
e 95 96
e 95 97
e 95 98
e 95 99
e 95 100
e 95 101
e 95 102
e 95 103
e 95 104
e 95 105
e 95 106
e 95 107
e 95 108
e 95 109
e 95 110
e 95 111
e 95 112
e 95 113
e 95 114
e 95 115
e 95 116
e 95 117
e 95 118
e 95 119
e 95 120
e 95 121
e 95 122
e 95 123
e 95 124
e 95 125
e 95 126
e 127 128
e 127 129
e 127 130
e 127 131
e 127 132
e 127 133
e 127 134
e 127 135
e 127 136
e 127 137
e 127 138
e 127 139
e 127 140
e 127 141
e 127 142
e 127 143
e 127 144
e 127 145
e 127 146
e 127 147
e 127 148
e 127 149
e 127 150
e 127 151
e 127 152
e 153 154
e 153 155
e 153 156
e 153 157
e 153 158
e 153 159
e 153 160
e 153 161
e 153 162
e 153 163
e 153 164
e 153 165
e 153 166
e 153 167
e 153 168
e 153 169
e 153 170
e 153 171
e 153 172
e 153 173
e 153 174
e 175 176
e 175 177
e 175 178
e 175 179
e 175 180
e 175 181
e 175 182
e 175 183
e 175 184
e 175 185
e 175 186
e 175 187
e 175 188
e 175 189
e 175 190
e 175 191
e 175 192
e 175 193
e 175 194
e 175 195
e 175 196
e 175 197
e 175 198
e 199 200
e 199 201
e 199 202
e 199 203
e 199 204
e 199 205
e 199 206
e 199 207
e 199 208
e 199 209
e 199 210
e 199 211
e 199 212
e 199 213
e 199 214
e 199 215
e 199 216
e 199 217
e 199 218
e 199 219
e 220 221
e 220 222
e 220 223
e 220 224
e 220 225
e 220 226
e 220 227
e 220 228
e 220 229
e 220 230
e 220 231
e 220 232
e 220 233
e 220 234
e 220 235
e 220 236
e 220 237
e 220 238
e 220 239
e 220 240
e 220 241
e 220 242
e 220 243
e 220 244
e 220 245
e 220 246
e 220 247
e 220 248
e 220 249
e 220 250
e 220 251
e 220 252
e 220 253
e 254 255
e 254 256
e 254 257
e 254 258
e 254 259
e 254 260
e 254 261
e 254 262
e 254 263
e 254 264
e 254 265
e 254 266
e 254 267
e 254 268
e 269 270
e 269 271
e 269 272
e 269 273
e 269 274
e 269 275
e 269 276
e 269 277
e 269 278
e 269 279
e 269 280
e 269 281
e 269 282
e 269 283
e 269 284
e 269 285
e 269 286
e 269 287
e 269 288
e 289 290
e 289 291
e 289 292
e 289 293
e 289 294
e 289 295
e 289 296
e 289 297
e 289 298
e 289 299
e 289 300
e 289 301
e 289 302
e 289 303
e 289 304
e 289 305
e 289 306
e 289 307
e 289 308
e 289 309
e 289 310
e 289 311
e 289 312
e 289 313
e 289 314
e 289 315
e 289 316
e 289 317
e 289 318
e 289 319
e 289 320
e 321 322
e 321 323
e 321 324
e 321 325
e 321 326
e 321 327
e 321 328
e 321 329
e 321 330
e 321 331
e 321 332
e 321 333
e 321 334
e 335 336
e 335 337
e 335 338
e 335 339
e 335 340
e 335 341
e 335 342
e 335 343
e 335 344
e 335 345
e 335 346
e 335 347
e 335 348
e 335 349
e 335 350
e 335 351
e 335 352
e 335 353
e 335 354
e 335 355
e 335 356
e 335 357
e 335 358
e 335 359
e 335 360
e 335 361
e 335 362
e 335 363
e 335 364
e 335 365
e 335 366
e 335 367
e 335 368
e 335 369
e 335 370
e 335 371
e 335 372
e 335 373
e 335 374
e 335 375
e 335 376
e 377 378
e 377 379
e 377 380
e 377 381
e 377 382
e 377 383
e 377 384
e 377 385
e 377 386
e 377 387
e 377 388
e 377 389
e 377 390
e 377 391
e 392 393
e 392 394
e 392 395
e 392 396
e 392 397
e 392 398
e 392 399
e 392 400
e 392 401
e 392 402
e 392 403
e 392 404
e 392 405
e 392 406
e 392 407
e 392 408
e 392 409
e 392 410
e 392 411
e 392 412
e 392 413
e 392 414
e 392 415
e 392 416
e 392 417
e 392 418
e 392 419
e 392 420
e 392 421
e 392 422
e 392 423
e 392 424
e 392 425
e 392 426
e 392 427
e 392 428
e 392 429
e 392 430
e 392 431
e 392 432
e 392 433
e 392 434
e 392 435
e 392 436
e 392 437
e 392 438
e 439 440
e 439 441
e 439 442
e 439 443
e 439 444
e 439 445
e 439 446
e 439 447
e 439 448
e 439 449
e 439 450
e 439 451
e 439 452
e 439 453
e 439 454
e 439 455
e 439 456
e 439 457
e 439 458
e 439 459
e 439 460
e 439 461
e 439 462
e 439 463
e 439 464
e 439 465
e 439 466
e 439 467
e 439 468
e 439 469
e 439 470
e 439 471
e 439 472
e 439 473
e 439 474
e 439 475
e 439 476
e 439 477
e 439 478
e 439 479
e 439 480
e 439 481
e 439 482
e 439 483
e 439 484
e 439 485
e 439 486
e 439 487
e 439 488
e 439 489
e 490 491
e 490 492
e 490 493
e 490 494
e 490 495
e 490 496
e 490 497
e 490 498
e 490 499
e 490 500
e 490 501
e 490 502
e 490 503
e 490 504
e 490 505
e 490 506
e 490 507
e 490 508
e 490 509
e 490 510
e 490 511
e 490 512
e 490 513
e 490 514
e 490 515
e 490 516
e 490 517
e 490 518
e 519 520
e 519 521
e 519 522
e 519 523
e 519 524
e 519 525
e 519 526
e 519 527
e 519 528
e 519 529
e 519 530
e 519 531
e 519 532
e 519 533
e 519 534
e 519 535
e 519 536
e 519 537
e 519 538
e 539 540
e 539 541
e 539 542
e 539 543
e 539 544
e 539 545
e 539 546
e 539 547
e 539 548
e 539 549
e 539 550
e 539 551
e 539 552
e 539 553
e 539 554
e 539 555
e 539 556
e 539 557
e 539 558
e 539 559
e 539 560
e 539 561
e 539 562
e 539 563
e 539 564
e 539 565
e 539 566
e 539 567
e 539 568
e 539 569
e 539 570
e 539 571
e 539 572
e 539 573
e 539 574
e 539 575
e 539 576
e 539 577
e 539 578
e 539 579
e 539 580
e 539 581
e 539 582
e 539 583
e 539 584
e 585 586
e 585 587
e 585 588
e 585 589
e 585 590
e 585 591
e 585 592
e 585 593
e 585 594
e 585 595
e 585 596
e 585 597
e 585 598
e 585 599
e 585 600
e 585 601
e 585 602
e 585 603
e 585 604
e 585 605
e 585 606
e 607 608
e 607 609
e 607 610
e 607 611
e 607 612
e 607 613
e 607 614
e 607 615
e 607 616
e 607 617
e 607 618
e 607 619
e 607 620
e 607 621
e 607 622
e 607 623
e 607 624
e 607 625
e 607 626
e 607 627
e 607 628
e 607 629
e 607 630
e 607 631
e 607 632
e 607 633
e 607 634
e 607 635
e 607 636
e 607 637
e 607 638
e 607 639
e 607 640
e 607 641
e 607 642
e 607 643
e 607 644
e 607 645
e 607 646
e 647 648
e 647 649
e 647 650
e 647 651
e 647 652
e 647 653
e 647 654
e 647 655
e 647 656
e 647 657
e 647 658
e 647 659
e 647 660
e 647 661
e 647 662
e 647 663
e 647 664
e 647 665
e 647 666
e 647 667
e 647 668
e 647 669
e 647 670
e 647 671
e 647 672
e 647 673
e 647 674
e 647 675
e 647 676
e 647 677
e 647 678
e 647 679
e 647 680
e 647 681
e 647 682
e 683 684
e 683 685
e 683 686
e 683 687
e 683 688
e 683 689
e 683 690
e 683 691
e 683 692
e 683 693
e 683 694
e 683 695
e 683 696
e 683 697
e 683 698
e 683 699
e 683 700
e 683 701
e 683 702
e 683 703
e 683 704
e 683 705
e 683 706
e 683 707
e 683 708
e 683 709
e 683 710
e 683 711
e 683 712
e 683 713
e 683 714
e 683 715
e 683 716
e 683 717
e 683 718
e 683 719
e 683 720
e 683 721
e 683 722
e 723 724
e 723 725
e 723 726
e 723 727
e 723 728
e 723 729
e 723 730
e 723 731
e 723 732
e 723 733
e 723 734
e 723 735
e 723 736
e 723 737
e 723 738
e 723 739
e 723 740
e 723 741
e 723 742
e 723 743
e 723 744
e 723 745
e 723 746
e 723 747
e 723 748
e 723 749
e 723 750
e 751 752
e 751 753
e 751 754
e 751 755
e 751 756
e 751 757
e 751 758
e 751 759
e 751 760
e 751 761
e 751 762
e 751 763
e 751 764
e 751 765
e 751 766
e 751 767
e 751 768
e 751 769
e 770 771
e 770 772
e 770 773
e 770 774
e 770 775
e 770 776
e 770 777
e 770 778
e 770 779
e 770 780
e 770 781
e 770 782
e 770 783
e 770 784
e 770 785
e 770 786
e 770 787
e 770 788
e 770 789
e 770 790
e 770 791
e 770 792
e 770 793
e 770 794
e 770 795
e 770 796
e 770 797
e 770 798
e 770 799
e 770 800
e 770 801
e 770 802
e 770 803
e 770 804
e 770 805
e 770 806
e 770 807
e 770 808
e 770 809
e 770 810
e 770 811
e 770 812
e 770 813
e 770 814
e 770 815
e 770 816
e 770 817
e 818 819
e 818 820
e 818 821
e 818 822
e 818 823
e 818 824
e 818 825
e 818 826
e 818 827
e 818 828
e 818 829
e 818 830
e 818 831
e 818 832
e 818 833
e 818 834
e 818 835
e 818 836
e 818 837
e 818 838
e 818 839
e 818 840
e 818 841
e 818 842
e 818 843
e 818 844
e 818 845
e 818 846
e 818 847
e 818 848
e 818 849
e 818 850
e 851 852
e 851 853
e 851 854
e 851 855
e 851 856
e 851 857
e 851 858
e 851 859
e 851 860
e 851 861
e 851 862
e 851 863
e 851 864
e 851 865
e 851 866
e 851 867
e 851 868
e 851 869
e 851 870
e 851 871
e 851 872
e 851 873
e 851 874
e 851 875
e 851 876
e 851 877
e 851 878
e 851 879
e 851 880
e 851 881
e 851 882
e 851 883
e 851 884
e 851 885
e 851 886
e 851 887
e 851 888
e 889 890
e 889 891
e 889 892
e 889 893
e 889 894
e 889 895
e 889 896
e 889 897
e 889 898
e 889 899
e 889 900
e 889 901
e 889 902
e 889 903
e 889 904
e 889 905
e 889 906
e 889 907
e 889 908
e 889 909
e 889 910
e 911 912
e 911 913
e 911 914
e 911 915
e 911 916
e 911 917
e 911 918
e 911 919
e 911 920
e 911 921
e 911 922
e 911 923
e 911 924
e 911 925
e 911 926
e 911 927
e 911 928
e 911 929
e 911 930
e 911 931
e 911 932
e 911 933
e 911 934
e 911 935
e 911 936
e 911 937
e 911 938
e 911 939
e 911 940
e 911 941
e 911 942
e 911 943
e 911 944
e 911 945
e 911 946
e 911 947
e 911 948
e 911 949
e 911 950
e 911 951
e 911 952
e 911 953
e 911 954
e 955 956
e 955 957
e 955 958
e 955 959
e 955 960
e 955 961
e 955 962
e 955 963
e 955 964
e 955 965
e 955 966
e 955 967
e 955 968
e 969 970
e 969 971
e 969 972
e 969 973
e 969 974
e 969 975
e 969 976
e 969 977
e 969 978
e 969 979
e 969 980
e 969 981
e 969 982
e 969 983
e 969 984
e 969 985
e 969 986
e 969 987
e 969 988
e 969 989
e 969 990
e 969 991
e 992 993
e 992 994
e 992 995
e 992 996
e 992 997
e 992 998
e 992 999
e 992 1000
e 992 1001
e 992 1002
e 992 1003
e 992 1004
e 992 1005
e 992 1006
e 992 1007
e 992 1008
e 992 1009
e 992 1010
e 992 1011
e 992 1012
e 992 1013
e 992 1014
e 992 1015
e 992 1016
e 992 1017
e 992 1018
e 992 1019
e 992 1020
e 992 1021
e 992 1022
e 992 1023
e 992 1024
e 992 1025
e 992 1026
e 992 1027
e 992 1028
e 992 1029
e 992 1030
e 992 1031
e 992 1032
e 992 1033
e 992 1034
e 992 1035
e 992 1036
e 1037 1038
e 1037 1039
e 1037 1040
e 1037 1041
e 1037 1042
e 1037 1043
e 1037 1044
e 1037 1045
e 1037 1046
e 1037 1047
e 1037 1048
e 1037 1049
e 1037 1050
e 1037 1051
e 1037 1052
e 1037 1053
e 1037 1054
e 1037 1055
e 1037 1056
e 1037 1057
e 1037 1058
e 1037 1059
e 1037 1060
e 1037 1061
e 1037 1062
e 1037 1063
e 1037 1064
e 1037 1065
e 1037 1066
e 1037 1067
e 1037 1068
e 1037 1069
e 1037 1070
e 1037 1071
e 1037 1072
e 1037 1073
e 1037 1074
e 1037 1075
e 1037 1076
e 1037 1077
e 1037 1078
e 1037 1079
e 1037 1080
e 1081 1082
e 1081 1083
e 1081 1084
e 1081 1085
e 1081 1086
e 1081 1087
e 1081 1088
e 1081 1089
e 1081 1090
e 1081 1091
e 1081 1092
e 1081 1093
e 1081 1094
e 1081 1095
e 1081 1096
e 1081 1097
e 1081 1098
e 1081 1099
e 1081 1100
e 1081 1101
e 1102 1103
e 1102 1104
e 1102 1105
e 1102 1106
e 1102 1107
e 1102 1108
e 1102 1109
e 1102 1110
e 1102 1111
e 1102 1112
e 1102 1113
e 1102 1114
e 1102 1115
e 1102 1116
e 1102 1117
e 1102 1118
e 1102 1119
e 1102 1120
e 1102 1121
e 1102 1122
e 1102 1123
e 1102 1124
e 1102 1125
e 1102 1126
e 1102 1127
e 1102 1128
e 1102 1129
e 1102 1130
e 1102 1131
e 1102 1132
e 1102 1133
e 1102 1134
e 1102 1135
e 1102 1136
e 1102 1137
e 1102 1138
e 1102 1139
e 1102 1140
e 1102 1141
e 1102 1142
e 1102 1143
e 1102 1144
e 1102 1145
e 1102 1146
e 1102 1147
e 1102 1148
e 1102 1149
e 1102 1150
e 1151 1152
e 1151 1153
e 1151 1154
e 1151 1155
e 1151 1156
e 1151 1157
e 1151 1158
e 1151 1159
e 1151 1160
e 1151 1161
e 1151 1162
e 1151 1163
e 1151 1164
e 1151 1165
e 1151 1166
e 1151 1167
e 1151 1168
e 1151 1169
e 1151 1170
e 1151 1171
e 1151 1172
e 1151 1173
e 1151 1174
e 1151 1175
e 1151 1176
e 1151 1177
e 1151 1178
e 1151 1179
e 1151 1180
e 1151 1181
e 1151 1182
e 1151 1183
e 1151 1184
e 1151 1185
e 1151 1186
e 1151 1187
e 1151 1188
e 1151 1189
e 1151 1190
e 1151 1191
e 1151 1192
e 1151 1193
e 1151 1194
e 1151 1195
e 1151 1196
e 1151 1197
e 1198 1199
e 1198 1200
e 1198 1201
e 1198 1202
e 1198 1203
e 1198 1204
e 1198 1205
e 1198 1206
e 1198 1207
e 1198 1208
